c Staircase at least one
p cnf 525 1157
-17 215 0
-16 215 0
-215 17 16 0
-215 214 0
-15 214 0
-214 215 15 0
-214 213 0
-14 213 0
-213 214 14 0
-213 212 0
-13 212 0
-212 213 13 0
-212 211 0
-12 211 0
-211 212 12 0
-211 210 0
-11 210 0
-210 211 11 0
-210 209 0
-10 209 0
-209 210 10 0
-209 208 0
-9 208 0
-208 209 9 0
-208 207 0
-8 207 0
-207 208 8 0
-207 206 0
-7 206 0
-206 207 7 0
-206 205 0
-6 205 0
-205 206 6 0
-205 204 0
-5 204 0
-204 205 5 0
-204 203 0
-4 203 0
-203 204 4 0
-203 202 0
-3 202 0
-202 203 3 0
-202 201 0
-2 201 0
-201 202 2 0
-34 230 0
-33 230 0
-230 34 33 0
-230 229 0
-32 229 0
-229 230 32 0
-229 228 0
-31 228 0
-228 229 31 0
-228 227 0
-30 227 0
-227 228 30 0
-227 226 0
-29 226 0
-226 227 29 0
-226 225 0
-28 225 0
-225 226 28 0
-225 224 0
-27 224 0
-224 225 27 0
-224 223 0
-26 223 0
-223 224 26 0
-223 222 0
-25 222 0
-222 223 25 0
-222 221 0
-24 221 0
-221 222 24 0
-221 220 0
-23 220 0
-220 221 23 0
-220 219 0
-22 219 0
-219 220 22 0
-219 218 0
-21 218 0
-218 219 21 0
-218 217 0
-20 217 0
-217 218 20 0
-217 216 0
-19 216 0
-216 217 19 0
-51 245 0
-50 245 0
-245 51 50 0
-245 244 0
-49 244 0
-244 245 49 0
-244 243 0
-48 243 0
-243 244 48 0
-243 242 0
-47 242 0
-242 243 47 0
-242 241 0
-46 241 0
-241 242 46 0
-241 240 0
-45 240 0
-240 241 45 0
-240 239 0
-44 239 0
-239 240 44 0
-239 238 0
-43 238 0
-238 239 43 0
-238 237 0
-42 237 0
-237 238 42 0
-237 236 0
-41 236 0
-236 237 41 0
-236 235 0
-40 235 0
-235 236 40 0
-235 234 0
-39 234 0
-234 235 39 0
-234 233 0
-38 233 0
-233 234 38 0
-233 232 0
-37 232 0
-232 233 37 0
-232 231 0
-36 231 0
-231 232 36 0
-68 260 0
-67 260 0
-260 68 67 0
-260 259 0
-66 259 0
-259 260 66 0
-259 258 0
-65 258 0
-258 259 65 0
-258 257 0
-64 257 0
-257 258 64 0
-257 256 0
-63 256 0
-256 257 63 0
-256 255 0
-62 255 0
-255 256 62 0
-255 254 0
-61 254 0
-254 255 61 0
-254 253 0
-60 253 0
-253 254 60 0
-253 252 0
-59 252 0
-252 253 59 0
-252 251 0
-58 251 0
-251 252 58 0
-251 250 0
-57 250 0
-250 251 57 0
-250 249 0
-56 249 0
-249 250 56 0
-249 248 0
-55 248 0
-248 249 55 0
-248 247 0
-54 247 0
-247 248 54 0
-247 246 0
-53 246 0
-246 247 53 0
-85 275 0
-84 275 0
-275 85 84 0
-275 274 0
-83 274 0
-274 275 83 0
-274 273 0
-82 273 0
-273 274 82 0
-273 272 0
-81 272 0
-272 273 81 0
-272 271 0
-80 271 0
-271 272 80 0
-271 270 0
-79 270 0
-270 271 79 0
-270 269 0
-78 269 0
-269 270 78 0
-269 268 0
-77 268 0
-268 269 77 0
-268 267 0
-76 267 0
-267 268 76 0
-267 266 0
-75 266 0
-266 267 75 0
-266 265 0
-74 265 0
-265 266 74 0
-265 264 0
-73 264 0
-264 265 73 0
-264 263 0
-72 263 0
-263 264 72 0
-263 262 0
-71 262 0
-262 263 71 0
-262 261 0
-70 261 0
-261 262 70 0
-102 290 0
-101 290 0
-290 102 101 0
-290 289 0
-100 289 0
-289 290 100 0
-289 288 0
-99 288 0
-288 289 99 0
-288 287 0
-98 287 0
-287 288 98 0
-287 286 0
-97 286 0
-286 287 97 0
-286 285 0
-96 285 0
-285 286 96 0
-285 284 0
-95 284 0
-284 285 95 0
-284 283 0
-94 283 0
-283 284 94 0
-283 282 0
-93 282 0
-282 283 93 0
-282 281 0
-92 281 0
-281 282 92 0
-281 280 0
-91 280 0
-280 281 91 0
-280 279 0
-90 279 0
-279 280 90 0
-279 278 0
-89 278 0
-278 279 89 0
-278 277 0
-88 277 0
-277 278 88 0
-277 276 0
-87 276 0
-276 277 87 0
-119 305 0
-118 305 0
-305 119 118 0
-305 304 0
-117 304 0
-304 305 117 0
-304 303 0
-116 303 0
-303 304 116 0
-303 302 0
-115 302 0
-302 303 115 0
-302 301 0
-114 301 0
-301 302 114 0
-301 300 0
-113 300 0
-300 301 113 0
-300 299 0
-112 299 0
-299 300 112 0
-299 298 0
-111 298 0
-298 299 111 0
-298 297 0
-110 297 0
-297 298 110 0
-297 296 0
-109 296 0
-296 297 109 0
-296 295 0
-108 295 0
-295 296 108 0
-295 294 0
-107 294 0
-294 295 107 0
-294 293 0
-106 293 0
-293 294 106 0
-293 292 0
-105 292 0
-292 293 105 0
-292 291 0
-104 291 0
-291 292 104 0
-136 320 0
-135 320 0
-320 136 135 0
-320 319 0
-134 319 0
-319 320 134 0
-319 318 0
-133 318 0
-318 319 133 0
-318 317 0
-132 317 0
-317 318 132 0
-317 316 0
-131 316 0
-316 317 131 0
-316 315 0
-130 315 0
-315 316 130 0
-315 314 0
-129 314 0
-314 315 129 0
-314 313 0
-128 313 0
-313 314 128 0
-313 312 0
-127 312 0
-312 313 127 0
-312 311 0
-126 311 0
-311 312 126 0
-311 310 0
-125 310 0
-310 311 125 0
-310 309 0
-124 309 0
-309 310 124 0
-309 308 0
-123 308 0
-308 309 123 0
-308 307 0
-122 307 0
-307 308 122 0
-307 306 0
-121 306 0
-306 307 121 0
-153 335 0
-152 335 0
-335 153 152 0
-335 334 0
-151 334 0
-334 335 151 0
-334 333 0
-150 333 0
-333 334 150 0
-333 332 0
-149 332 0
-332 333 149 0
-332 331 0
-148 331 0
-331 332 148 0
-331 330 0
-147 330 0
-330 331 147 0
-330 329 0
-146 329 0
-329 330 146 0
-329 328 0
-145 328 0
-328 329 145 0
-328 327 0
-144 327 0
-327 328 144 0
-327 326 0
-143 326 0
-326 327 143 0
-326 325 0
-142 325 0
-325 326 142 0
-325 324 0
-141 324 0
-324 325 141 0
-324 323 0
-140 323 0
-323 324 140 0
-323 322 0
-139 322 0
-322 323 139 0
-322 321 0
-138 321 0
-321 322 138 0
-170 350 0
-169 350 0
-350 170 169 0
-350 349 0
-168 349 0
-349 350 168 0
-349 348 0
-167 348 0
-348 349 167 0
-348 347 0
-166 347 0
-347 348 166 0
-347 346 0
-165 346 0
-346 347 165 0
-346 345 0
-164 345 0
-345 346 164 0
-345 344 0
-163 344 0
-344 345 163 0
-344 343 0
-162 343 0
-343 344 162 0
-343 342 0
-161 342 0
-342 343 161 0
-342 341 0
-160 341 0
-341 342 160 0
-341 340 0
-159 340 0
-340 341 159 0
-340 339 0
-158 339 0
-339 340 158 0
-339 338 0
-157 338 0
-338 339 157 0
-338 337 0
-156 337 0
-337 338 156 0
-337 336 0
-155 336 0
-336 337 155 0
-363 362 0
-183 362 0
-362 363 183 0
-362 361 0
-182 361 0
-361 362 182 0
-361 360 0
-181 360 0
-360 361 181 0
-360 359 0
-180 359 0
-359 360 180 0
-359 358 0
-179 358 0
-358 359 179 0
-358 357 0
-178 357 0
-357 358 178 0
-357 356 0
-177 356 0
-356 357 177 0
-356 355 0
-176 355 0
-355 356 176 0
-355 354 0
-175 354 0
-354 355 175 0
-354 353 0
-174 353 0
-353 354 174 0
-353 352 0
-173 352 0
-352 353 173 0
-352 351 0
-172 351 0
-351 352 172 0
-184 363 0
-185 363 0
-186 363 0
-187 363 0
-18 364 0
-19 364 0
-364 18 19 0
-364 365 0
-20 365 0
-365 364 20 0
-365 366 0
-21 366 0
-366 365 21 0
-366 367 0
-22 367 0
-367 366 22 0
-367 368 0
-23 368 0
-368 367 23 0
-368 369 0
-24 369 0
-369 368 24 0
-369 370 0
-25 370 0
-370 369 25 0
-370 371 0
-26 371 0
-371 370 26 0
-371 372 0
-27 372 0
-372 371 27 0
-372 373 0
-28 373 0
-373 372 28 0
-373 374 0
-29 374 0
-374 373 29 0
-374 375 0
-30 375 0
-375 374 30 0
-375 376 0
-31 376 0
-376 375 31 0
-376 377 0
-32 377 0
-377 376 32 0
-377 378 0
-33 378 0
-378 377 33 0
-35 379 0
-36 379 0
-379 35 36 0
-379 380 0
-37 380 0
-380 379 37 0
-380 381 0
-38 381 0
-381 380 38 0
-381 382 0
-39 382 0
-382 381 39 0
-382 383 0
-40 383 0
-383 382 40 0
-383 384 0
-41 384 0
-384 383 41 0
-384 385 0
-42 385 0
-385 384 42 0
-385 386 0
-43 386 0
-386 385 43 0
-386 387 0
-44 387 0
-387 386 44 0
-387 388 0
-45 388 0
-388 387 45 0
-388 389 0
-46 389 0
-389 388 46 0
-389 390 0
-47 390 0
-390 389 47 0
-390 391 0
-48 391 0
-391 390 48 0
-391 392 0
-49 392 0
-392 391 49 0
-392 393 0
-50 393 0
-393 392 50 0
-52 394 0
-53 394 0
-394 52 53 0
-394 395 0
-54 395 0
-395 394 54 0
-395 396 0
-55 396 0
-396 395 55 0
-396 397 0
-56 397 0
-397 396 56 0
-397 398 0
-57 398 0
-398 397 57 0
-398 399 0
-58 399 0
-399 398 58 0
-399 400 0
-59 400 0
-400 399 59 0
-400 401 0
-60 401 0
-401 400 60 0
-401 402 0
-61 402 0
-402 401 61 0
-402 403 0
-62 403 0
-403 402 62 0
-403 404 0
-63 404 0
-404 403 63 0
-404 405 0
-64 405 0
-405 404 64 0
-405 406 0
-65 406 0
-406 405 65 0
-406 407 0
-66 407 0
-407 406 66 0
-407 408 0
-67 408 0
-408 407 67 0
-69 409 0
-70 409 0
-409 69 70 0
-409 410 0
-71 410 0
-410 409 71 0
-410 411 0
-72 411 0
-411 410 72 0
-411 412 0
-73 412 0
-412 411 73 0
-412 413 0
-74 413 0
-413 412 74 0
-413 414 0
-75 414 0
-414 413 75 0
-414 415 0
-76 415 0
-415 414 76 0
-415 416 0
-77 416 0
-416 415 77 0
-416 417 0
-78 417 0
-417 416 78 0
-417 418 0
-79 418 0
-418 417 79 0
-418 419 0
-80 419 0
-419 418 80 0
-419 420 0
-81 420 0
-420 419 81 0
-420 421 0
-82 421 0
-421 420 82 0
-421 422 0
-83 422 0
-422 421 83 0
-422 423 0
-84 423 0
-423 422 84 0
-86 424 0
-87 424 0
-424 86 87 0
-424 425 0
-88 425 0
-425 424 88 0
-425 426 0
-89 426 0
-426 425 89 0
-426 427 0
-90 427 0
-427 426 90 0
-427 428 0
-91 428 0
-428 427 91 0
-428 429 0
-92 429 0
-429 428 92 0
-429 430 0
-93 430 0
-430 429 93 0
-430 431 0
-94 431 0
-431 430 94 0
-431 432 0
-95 432 0
-432 431 95 0
-432 433 0
-96 433 0
-433 432 96 0
-433 434 0
-97 434 0
-434 433 97 0
-434 435 0
-98 435 0
-435 434 98 0
-435 436 0
-99 436 0
-436 435 99 0
-436 437 0
-100 437 0
-437 436 100 0
-437 438 0
-101 438 0
-438 437 101 0
-103 439 0
-104 439 0
-439 103 104 0
-439 440 0
-105 440 0
-440 439 105 0
-440 441 0
-106 441 0
-441 440 106 0
-441 442 0
-107 442 0
-442 441 107 0
-442 443 0
-108 443 0
-443 442 108 0
-443 444 0
-109 444 0
-444 443 109 0
-444 445 0
-110 445 0
-445 444 110 0
-445 446 0
-111 446 0
-446 445 111 0
-446 447 0
-112 447 0
-447 446 112 0
-447 448 0
-113 448 0
-448 447 113 0
-448 449 0
-114 449 0
-449 448 114 0
-449 450 0
-115 450 0
-450 449 115 0
-450 451 0
-116 451 0
-451 450 116 0
-451 452 0
-117 452 0
-452 451 117 0
-452 453 0
-118 453 0
-453 452 118 0
-120 454 0
-121 454 0
-454 120 121 0
-454 455 0
-122 455 0
-455 454 122 0
-455 456 0
-123 456 0
-456 455 123 0
-456 457 0
-124 457 0
-457 456 124 0
-457 458 0
-125 458 0
-458 457 125 0
-458 459 0
-126 459 0
-459 458 126 0
-459 460 0
-127 460 0
-460 459 127 0
-460 461 0
-128 461 0
-461 460 128 0
-461 462 0
-129 462 0
-462 461 129 0
-462 463 0
-130 463 0
-463 462 130 0
-463 464 0
-131 464 0
-464 463 131 0
-464 465 0
-132 465 0
-465 464 132 0
-465 466 0
-133 466 0
-466 465 133 0
-466 467 0
-134 467 0
-467 466 134 0
-467 468 0
-135 468 0
-468 467 135 0
-137 469 0
-138 469 0
-469 137 138 0
-469 470 0
-139 470 0
-470 469 139 0
-470 471 0
-140 471 0
-471 470 140 0
-471 472 0
-141 472 0
-472 471 141 0
-472 473 0
-142 473 0
-473 472 142 0
-473 474 0
-143 474 0
-474 473 143 0
-474 475 0
-144 475 0
-475 474 144 0
-475 476 0
-145 476 0
-476 475 145 0
-476 477 0
-146 477 0
-477 476 146 0
-477 478 0
-147 478 0
-478 477 147 0
-478 479 0
-148 479 0
-479 478 148 0
-479 480 0
-149 480 0
-480 479 149 0
-480 481 0
-150 481 0
-481 480 150 0
-481 482 0
-151 482 0
-482 481 151 0
-482 483 0
-152 483 0
-483 482 152 0
-154 484 0
-155 484 0
-484 154 155 0
-484 485 0
-156 485 0
-485 484 156 0
-485 486 0
-157 486 0
-486 485 157 0
-486 487 0
-158 487 0
-487 486 158 0
-487 488 0
-159 488 0
-488 487 159 0
-488 489 0
-160 489 0
-489 488 160 0
-489 490 0
-161 490 0
-490 489 161 0
-490 491 0
-162 491 0
-491 490 162 0
-491 492 0
-163 492 0
-492 491 163 0
-492 493 0
-164 493 0
-493 492 164 0
-493 494 0
-165 494 0
-494 493 165 0
-494 495 0
-166 495 0
-495 494 166 0
-495 496 0
-167 496 0
-496 495 167 0
-496 497 0
-168 497 0
-497 496 168 0
-497 498 0
-169 498 0
-498 497 169 0
-171 499 0
-172 499 0
-499 171 172 0
-499 500 0
-173 500 0
-500 499 173 0
-500 501 0
-174 501 0
-501 500 174 0
-501 502 0
-175 502 0
-502 501 175 0
-502 503 0
-176 503 0
-503 502 176 0
-503 504 0
-177 504 0
-504 503 177 0
-504 505 0
-178 505 0
-505 504 178 0
-505 506 0
-179 506 0
-506 505 179 0
-506 507 0
-180 507 0
-507 506 180 0
-507 508 0
-181 508 0
-508 507 181 0
-508 509 0
-182 509 0
-509 508 182 0
-509 510 0
-183 510 0
-510 509 183 0
-510 511 0
-184 511 0
-511 510 184 0
-511 512 0
-185 512 0
-512 511 185 0
-512 513 0
-186 513 0
-513 512 186 0
-188 514 0
-189 514 0
-514 188 189 0
-514 515 0
-190 515 0
-515 514 190 0
-515 516 0
-191 516 0
-516 515 191 0
-516 517 0
-192 517 0
-517 516 192 0
-517 518 0
-193 518 0
-518 517 193 0
-518 519 0
-194 519 0
-519 518 194 0
-519 520 0
-195 520 0
-520 519 195 0
-520 521 0
-196 521 0
-521 520 196 0
-521 522 0
-197 522 0
-522 521 197 0
-522 523 0
-198 523 0
-523 522 198 0
-523 524 0
-199 524 0
-524 523 199 0
1 201 0
201 18 0
202 364 0
203 365 0
204 366 0
205 367 0
206 368 0
207 369 0
208 370 0
209 371 0
210 372 0
211 373 0
212 374 0
213 375 0
214 376 0
215 377 0
17 378 0
18 216 378 0
216 35 0
217 379 0
218 380 0
219 381 0
220 382 0
221 383 0
222 384 0
223 385 0
224 386 0
225 387 0
226 388 0
227 389 0
228 390 0
229 391 0
230 392 0
34 393 0
35 231 393 0
231 52 0
232 394 0
233 395 0
234 396 0
235 397 0
236 398 0
237 399 0
238 400 0
239 401 0
240 402 0
241 403 0
242 404 0
243 405 0
244 406 0
245 407 0
51 408 0
52 246 408 0
246 69 0
247 409 0
248 410 0
249 411 0
250 412 0
251 413 0
252 414 0
253 415 0
254 416 0
255 417 0
256 418 0
257 419 0
258 420 0
259 421 0
260 422 0
68 423 0
69 261 423 0
261 86 0
262 424 0
263 425 0
264 426 0
265 427 0
266 428 0
267 429 0
268 430 0
269 431 0
270 432 0
271 433 0
272 434 0
273 435 0
274 436 0
275 437 0
85 438 0
86 276 438 0
276 103 0
277 439 0
278 440 0
279 441 0
280 442 0
281 443 0
282 444 0
283 445 0
284 446 0
285 447 0
286 448 0
287 449 0
288 450 0
289 451 0
290 452 0
102 453 0
103 291 453 0
291 120 0
292 454 0
293 455 0
294 456 0
295 457 0
296 458 0
297 459 0
298 460 0
299 461 0
300 462 0
301 463 0
302 464 0
303 465 0
304 466 0
305 467 0
119 468 0
120 306 468 0
306 137 0
307 469 0
308 470 0
309 471 0
310 472 0
311 473 0
312 474 0
313 475 0
314 476 0
315 477 0
316 478 0
317 479 0
318 480 0
319 481 0
320 482 0
136 483 0
137 321 483 0
321 154 0
322 484 0
323 485 0
324 486 0
325 487 0
326 488 0
327 489 0
328 490 0
329 491 0
330 492 0
331 493 0
332 494 0
333 495 0
334 496 0
335 497 0
153 498 0
154 336 498 0
336 171 0
337 499 0
338 500 0
339 501 0
340 502 0
341 503 0
342 504 0
343 505 0
344 506 0
345 507 0
346 508 0
347 509 0
348 510 0
349 511 0
350 512 0
170 513 0
171 351 513 0
351 188 0
352 514 0
353 515 0
354 516 0
355 517 0
356 518 0
357 519 0
358 520 0
359 521 0
360 522 0
361 523 0
362 524 0
363 525 0
